
Gurobi 6.5.2 (linux64) logging started Wed Aug 31 10:35:26 2016

Optimize a model with 101 rows, 418 columns and 935 nonzeros
Coefficient statistics:
  Matrix range    [1e+00, 2e+00]
  Objective range [1e+00, 1e+02]
  Bounds range    [1e+00, 1e+00]
  RHS range       [1e+00, 1e+00]
Found heuristic solution: objective 1670
Presolve removed 33 rows and 11 columns
Presolve time: 0.00s
Presolved: 68 rows, 407 columns, 828 nonzeros
Variable types: 0 continuous, 407 integer (407 binary)

Root relaxation: objective 6.917500e+02, 88 iterations, 0.00 seconds

    Nodes    |    Current Node    |     Objective Bounds      |     Work
 Expl Unexpl |  Obj  Depth IntInf | Incumbent    BestBd   Gap | It/Node Time

     0     0  691.75000    0   35 1670.00000  691.75000  58.6%     -    0s
H    0     0                     918.0000000  691.75000  24.6%     -    0s
H    0     0                     811.0000000  691.75000  14.7%     -    0s
H    0     0                     753.0000000  691.75000  8.13%     -    0s
H    0     0                     746.0000000  691.75000  7.27%     -    0s
H    0     0                     743.0000000  692.50000  6.80%     -    0s
     0     0  715.00000    0    8  743.00000  715.00000  3.77%     -    0s
     0     0  715.00000    0   35  743.00000  715.00000  3.77%     -    0s
H    0     0                     739.0000000  715.00000  3.25%     -    0s
     0     0  720.00000    0    4  739.00000  720.00000  2.57%     -    0s
H    0     0                     731.0000000  720.00000  1.50%     -    0s
     0     0  725.33333    0   33  731.00000  725.33333  0.78%     -    0s
     0     0  725.33333    0   11  731.00000  725.33333  0.78%     -    0s
     0     0  725.33333    0   18  731.00000  725.33333  0.78%     -    0s
     0     0  725.33333    0   27  731.00000  725.33333  0.78%     -    0s
     0     0  726.00000    0   20  731.00000  726.00000  0.68%     -    0s

Cutting planes:
  Gomory: 5
  Cover: 19
  Clique: 9
  Zero half: 1

Explored 0 nodes (345 simplex iterations) in 0.06 seconds
Thread count was 8 (of 8 available processors)

Optimal solution found (tolerance 1.00e-04)
Best objective 7.310000000000e+02, best bound 7.310000000000e+02, gap 0.0%
